jobs  (incl. supersource/sink ):	102
RESOURCES
- renewable                 : 4 R
- nonrenewable              : 4 N
- doubly constrained        : 0 D
************************************************************************
PRECEDENCE RELATIONS:
jobnr.    #modes  #successors   successors
1	1	35		2 3 4 5 6 7 8 9 10 11 12 13 14 15 16 17 18 19 20 21 22 23 26 27 28 29 32 33 34 35 36 38 42 44 62 
2	9	18		101 100 79 77 75 63 59 58 56 55 52 51 49 40 39 37 25 24 
3	9	19		99 96 79 78 76 74 72 70 68 64 60 58 56 52 50 47 46 40 31 
4	9	12		98 73 72 65 59 57 55 52 51 43 41 30 
5	9	16		101 99 98 94 74 72 70 66 64 63 60 58 57 55 47 40 
6	9	10		101 100 78 76 74 72 59 58 40 25 
7	9	14		100 98 94 70 67 65 64 61 60 56 55 54 48 40 
8	9	11		99 97 96 78 77 74 66 64 61 59 31 
9	9	18		101 99 98 95 94 88 87 77 76 74 72 70 69 61 58 57 54 47 
10	9	15		101 100 98 96 95 94 74 70 66 64 60 59 52 47 40 
11	9	9		101 100 74 72 71 63 58 57 25 
12	9	23		101 100 99 98 97 96 95 94 92 91 90 89 88 80 77 73 72 71 70 69 66 64 63 
13	9	12		101 100 98 89 75 74 70 55 52 50 49 47 
14	9	16		100 98 97 95 94 92 88 76 71 70 69 67 65 58 54 49 
15	9	11		100 95 76 74 72 60 59 58 53 52 45 
16	9	19		101 100 97 96 95 94 93 92 91 85 79 75 73 72 71 69 64 63 56 
17	9	17		100 99 98 94 91 88 86 77 76 74 72 71 70 68 60 58 51 
18	9	14		101 98 96 95 94 93 76 75 73 72 70 68 63 40 
19	9	11		99 98 96 69 67 65 64 63 60 56 43 
20	9	15		99 98 94 93 92 91 86 83 73 72 71 67 60 57 55 
21	9	16		100 98 97 96 95 94 91 89 88 87 79 75 74 70 59 53 
22	9	12		99 98 96 95 94 75 65 63 60 58 56 52 
23	9	11		101 99 94 91 84 80 76 72 66 64 46 
24	9	17		99 97 96 95 93 91 90 82 81 80 74 73 71 70 69 64 60 
25	9	12		98 96 94 92 89 88 84 73 70 69 66 47 
26	9	15		97 96 95 94 93 92 90 89 88 77 73 72 64 63 59 
27	9	15		101 99 97 96 94 91 88 87 86 76 72 69 63 61 58 
28	9	11		99 98 92 91 72 70 67 64 63 55 54 
29	9	11		94 91 87 86 78 74 70 63 59 55 53 
30	9	15		99 94 93 91 90 88 87 82 80 76 71 70 68 64 63 
31	9	8		98 93 91 89 73 69 63 43 
32	9	16		99 94 93 92 91 90 89 88 82 81 80 78 71 70 69 64 
33	9	14		101 95 93 91 89 88 87 86 75 71 70 69 67 59 
34	9	11		92 91 90 88 86 75 72 69 63 59 51 
35	9	11		96 95 93 91 87 86 76 74 69 63 61 
36	9	12		100 95 93 92 91 88 84 81 75 73 72 64 
37	9	10		94 89 86 84 80 73 72 69 68 67 
38	9	9		97 95 91 88 87 72 70 69 66 
39	9	9		96 95 93 89 87 82 71 70 64 
40	9	10		92 90 89 88 86 85 82 80 71 69 
41	9	10		96 94 93 92 87 86 83 82 80 63 
42	9	6		87 86 80 74 63 55 
43	9	10		101 100 94 92 88 86 85 83 82 75 
44	9	9		95 91 85 84 82 81 80 74 69 
45	9	8		94 89 88 84 82 81 73 65 
46	9	7		97 95 93 92 88 77 61 
47	9	8		97 90 86 85 83 82 81 65 
48	9	7		99 93 90 89 82 75 63 
49	9	8		91 90 86 84 83 81 80 73 
50	9	7		97 94 88 87 85 81 65 
51	9	7		97 96 89 87 85 82 80 
52	9	6		93 88 87 86 80 69 
53	9	6		93 90 83 82 80 71 
54	9	6		96 93 84 83 82 80 
55	9	4		95 88 82 81 
56	9	4		90 89 88 81 
57	9	4		96 82 81 80 
58	9	3		84 81 80 
59	9	3		85 82 80 
60	9	3		89 87 85 
61	9	3		90 89 85 
62	9	3		91 85 81 
63	9	2		84 81 
64	9	2		86 83 
65	9	2		91 80 
66	9	2		93 81 
67	9	2		90 81 
68	9	2		92 83 
69	9	1		83 
70	9	1		85 
71	9	1		84 
72	9	1		82 
73	9	1		87 
74	9	1		92 
75	9	1		80 
76	9	1		89 
77	9	1		81 
78	9	1		95 
79	9	1		83 
80	9	1		102 
81	9	1		102 
82	9	1		102 
83	9	1		102 
84	9	1		102 
85	9	1		102 
86	9	1		102 
87	9	1		102 
88	9	1		102 
89	9	1		102 
90	9	1		102 
91	9	1		102 
92	9	1		102 
93	9	1		102 
94	9	1		102 
95	9	1		102 
96	9	1		102 
97	9	1		102 
98	9	1		102 
99	9	1		102 
100	9	1		102 
101	9	1		102 
102	1	0		
************************************************************************
REQUESTS/DURATIONS
jobnr.	mode	dur	R1	R2	R3	R4	N1	N2	N3	N4	
------------------------------------------------------------------------
1	1	0	0	0	0	0	0	0	0	0	
2	1	4	4	4	3	5	28	11	24	13	
	2	5	4	3	3	4	28	11	24	12	
	3	6	4	3	3	4	28	11	24	11	
	4	13	4	3	2	4	27	11	24	10	
	5	18	4	3	2	3	27	11	24	10	
	6	23	4	2	2	3	27	11	24	10	
	7	24	4	2	2	3	27	11	24	9	
	8	28	4	2	1	2	26	11	24	8	
	9	30	4	2	1	2	26	11	24	7	
3	1	2	1	2	3	5	21	21	13	29	
	2	4	1	2	3	4	21	21	11	25	
	3	10	1	2	3	4	19	20	9	25	
	4	17	1	2	3	4	18	20	9	21	
	5	25	1	1	3	4	17	19	7	18	
	6	26	1	1	3	4	17	19	6	16	
	7	27	1	1	3	4	16	19	3	15	
	8	28	1	1	3	4	14	18	3	14	
	9	30	1	1	3	4	14	18	1	10	
4	1	1	4	4	4	4	24	23	29	30	
	2	10	4	3	4	3	21	21	29	28	
	3	12	4	3	4	3	18	18	29	28	
	4	18	4	3	4	3	17	16	29	26	
	5	21	4	2	4	3	14	13	29	25	
	6	22	4	2	3	3	12	10	28	24	
	7	23	4	1	3	3	8	10	28	23	
	8	24	4	1	3	3	7	6	28	23	
	9	28	4	1	3	3	6	4	28	22	
5	1	1	4	3	4	4	23	16	15	21	
	2	4	4	3	4	3	22	15	14	21	
	3	7	4	3	4	3	21	14	13	21	
	4	11	4	3	4	3	20	12	10	21	
	5	15	4	2	3	3	19	12	10	21	
	6	17	4	2	3	2	18	9	9	20	
	7	19	4	2	3	2	17	8	7	20	
	8	25	4	2	3	2	16	8	5	20	
	9	27	4	2	3	2	14	7	5	20	
6	1	2	2	4	3	5	22	6	6	26	
	2	4	1	4	3	5	21	5	5	24	
	3	6	1	3	3	5	20	5	5	21	
	4	12	1	3	3	5	19	5	4	20	
	5	13	1	2	3	5	19	5	4	17	
	6	14	1	2	3	5	18	5	4	16	
	7	21	1	1	3	5	18	5	3	14	
	8	29	1	1	3	5	17	5	3	10	
	9	30	1	1	3	5	17	5	3	9	
7	1	5	4	4	5	4	13	21	11	26	
	2	7	4	4	4	4	13	19	10	25	
	3	14	4	3	4	4	12	19	10	24	
	4	15	3	3	4	3	11	18	9	23	
	5	17	3	3	4	3	11	17	8	22	
	6	25	3	2	3	2	11	14	8	20	
	7	28	3	2	3	2	10	14	8	19	
	8	29	2	1	3	1	9	12	7	19	
	9	30	2	1	3	1	9	12	7	18	
8	1	4	2	5	4	2	26	21	25	23	
	2	5	2	4	4	1	22	20	23	20	
	3	10	2	4	4	1	22	19	21	18	
	4	11	2	3	4	1	20	18	17	16	
	5	12	2	3	4	1	16	16	17	13	
	6	18	2	3	4	1	14	15	13	11	
	7	19	2	2	4	1	13	13	12	7	
	8	20	2	2	4	1	10	13	10	5	
	9	22	2	2	4	1	10	12	9	2	
9	1	5	1	3	4	5	28	15	23	25	
	2	6	1	2	3	4	27	14	22	25	
	3	8	1	2	3	4	27	14	22	24	
	4	9	1	2	3	4	26	13	22	25	
	5	11	1	1	2	4	26	12	21	24	
	6	16	1	1	2	4	26	12	21	23	
	7	18	1	1	2	4	26	11	21	24	
	8	25	1	1	2	4	25	11	21	24	
	9	26	1	1	2	4	25	11	21	23	
10	1	5	2	3	4	3	28	28	20	29	
	2	13	2	3	4	3	27	28	19	23	
	3	14	2	3	4	3	27	26	18	20	
	4	16	2	3	4	3	26	25	16	18	
	5	17	2	3	4	3	25	25	16	15	
	6	18	2	3	4	3	25	25	15	13	
	7	19	2	3	4	3	25	23	14	9	
	8	20	2	3	4	3	24	22	12	8	
	9	25	2	3	4	3	24	22	11	5	
11	1	3	4	5	3	5	5	28	14	15	
	2	15	3	5	3	4	4	25	14	15	
	3	16	3	5	3	3	4	23	13	13	
	4	17	3	5	3	3	4	20	11	13	
	5	18	3	5	3	2	4	17	11	11	
	6	21	2	5	3	2	4	13	9	10	
	7	24	2	5	3	1	4	9	8	9	
	8	26	2	5	3	1	4	5	7	9	
	9	28	2	5	3	1	4	1	7	7	
12	1	1	3	3	1	2	17	27	8	22	
	2	2	3	3	1	2	15	27	7	22	
	3	10	3	3	1	2	14	26	6	19	
	4	13	3	3	1	2	13	24	6	18	
	5	18	3	3	1	2	11	22	5	16	
	6	19	2	2	1	2	9	21	4	14	
	7	20	2	2	1	2	9	19	4	10	
	8	25	2	2	1	2	8	19	3	9	
	9	26	2	2	1	2	6	17	2	8	
13	1	7	2	3	3	1	23	8	22	18	
	2	8	2	3	3	1	22	8	21	17	
	3	10	2	3	3	1	20	8	17	17	
	4	13	2	3	2	1	20	8	17	16	
	5	21	2	3	2	1	18	8	14	14	
	6	25	2	3	2	1	16	8	12	12	
	7	26	2	3	2	1	15	8	10	10	
	8	27	2	3	1	1	14	8	5	9	
	9	29	2	3	1	1	14	8	5	8	
14	1	9	4	4	4	2	30	8	24	24	
	2	10	4	4	3	2	28	7	22	24	
	3	11	4	4	3	2	28	7	22	23	
	4	12	4	3	3	2	27	6	21	24	
	5	14	4	3	2	2	25	6	20	23	
	6	18	3	3	2	2	25	6	20	23	
	7	23	3	2	2	2	24	6	20	23	
	8	25	3	2	1	2	23	5	18	23	
	9	29	3	2	1	2	21	5	18	23	
15	1	7	4	5	4	3	27	18	29	27	
	2	13	4	4	4	3	26	17	23	26	
	3	15	4	4	4	3	25	17	22	26	
	4	17	4	3	4	3	25	17	16	26	
	5	20	3	2	4	3	24	17	13	26	
	6	26	3	2	4	2	24	16	13	26	
	7	28	3	2	4	2	24	16	8	26	
	8	29	3	1	4	2	23	16	5	26	
	9	30	3	1	4	2	23	16	3	26	
16	1	6	5	4	5	2	17	16	16	26	
	2	12	4	3	4	2	15	12	15	24	
	3	16	4	3	3	2	12	12	13	24	
	4	18	4	3	3	2	12	9	12	23	
	5	22	4	3	2	2	9	9	10	22	
	6	24	4	2	2	2	9	8	9	22	
	7	26	4	2	1	2	6	6	5	22	
	8	29	4	2	1	2	4	5	5	20	
	9	30	4	2	1	2	2	3	3	20	
17	1	3	2	2	3	3	25	22	25	13	
	2	7	2	2	3	3	23	18	22	13	
	3	8	2	2	3	3	23	17	21	13	
	4	11	2	2	3	2	22	16	21	13	
	5	15	1	2	3	2	22	13	19	13	
	6	18	1	2	3	2	22	12	17	12	
	7	21	1	2	3	2	21	11	15	12	
	8	26	1	2	3	1	21	9	14	12	
	9	30	1	2	3	1	20	7	14	12	
18	1	1	1	5	3	2	30	10	22	23	
	2	2	1	4	3	2	27	10	20	21	
	3	4	1	4	3	2	24	10	18	21	
	4	8	1	4	3	2	19	9	13	21	
	5	9	1	4	2	1	18	8	13	20	
	6	11	1	3	2	1	15	8	8	19	
	7	16	1	3	2	1	11	8	6	18	
	8	17	1	3	1	1	6	7	5	17	
	9	27	1	3	1	1	4	7	3	17	
19	1	1	3	2	4	5	23	20	11	11	
	2	4	3	2	4	4	21	18	10	10	
	3	5	3	2	4	4	17	18	9	9	
	4	9	3	2	4	4	14	13	9	8	
	5	17	3	1	4	3	14	13	8	8	
	6	18	3	1	4	3	12	11	8	7	
	7	19	3	1	4	2	7	9	7	7	
	8	26	3	1	4	2	5	5	7	5	
	9	29	3	1	4	2	5	4	7	5	
20	1	10	4	3	5	4	27	20	29	22	
	2	15	3	3	4	3	25	18	25	20	
	3	17	3	3	4	3	23	16	25	18	
	4	23	3	3	4	3	19	15	21	16	
	5	24	2	2	4	2	17	10	20	15	
	6	25	2	2	4	2	16	10	16	14	
	7	26	2	2	4	2	13	8	15	10	
	8	27	2	2	4	2	11	5	12	9	
	9	29	2	2	4	2	10	3	9	7	
21	1	3	5	1	5	4	6	13	27	24	
	2	6	4	1	4	4	6	11	27	21	
	3	8	4	1	4	4	6	11	27	18	
	4	10	4	1	4	3	6	11	27	15	
	5	20	3	1	4	3	6	10	26	15	
	6	25	3	1	4	2	5	9	26	13	
	7	26	2	1	4	2	5	9	26	9	
	8	28	2	1	4	1	5	8	25	8	
	9	29	2	1	4	1	5	8	25	5	
22	1	5	4	5	2	5	22	13	19	26	
	2	7	3	4	2	4	19	12	18	26	
	3	10	3	4	2	4	16	11	16	24	
	4	11	2	3	2	4	14	9	15	24	
	5	12	2	3	1	4	10	8	12	23	
	6	13	2	2	1	4	9	7	12	21	
	7	15	1	2	1	4	7	6	9	20	
	8	17	1	1	1	4	3	5	7	19	
	9	26	1	1	1	4	2	4	6	18	
23	1	2	3	5	2	2	9	21	30	16	
	2	3	3	4	2	1	8	19	28	14	
	3	10	3	4	2	1	7	17	27	14	
	4	11	3	4	2	1	7	13	27	13	
	5	13	3	4	2	1	6	13	26	11	
	6	17	3	3	2	1	5	9	25	8	
	7	25	3	3	2	1	4	7	24	6	
	8	26	3	3	2	1	3	6	24	4	
	9	28	3	3	2	1	3	3	23	3	
24	1	2	4	5	2	5	16	17	18	25	
	2	4	4	5	2	4	14	16	15	25	
	3	5	4	5	2	4	12	14	13	25	
	4	9	3	5	2	4	12	14	10	25	
	5	12	2	5	2	4	10	13	10	25	
	6	13	2	5	2	4	9	13	8	24	
	7	20	1	5	2	4	6	12	6	24	
	8	28	1	5	2	4	6	11	4	24	
	9	29	1	5	2	4	4	10	2	24	
25	1	2	2	3	2	2	8	20	28	29	
	2	5	2	3	2	2	8	19	25	28	
	3	7	2	3	2	2	8	17	24	26	
	4	12	2	3	2	2	8	16	22	25	
	5	13	2	3	2	2	8	15	20	25	
	6	15	2	3	1	1	7	13	18	24	
	7	23	2	3	1	1	7	10	16	22	
	8	25	2	3	1	1	7	9	13	22	
	9	26	2	3	1	1	7	8	9	20	
26	1	11	5	4	1	5	9	24	28	9	
	2	14	4	4	1	4	8	23	28	8	
	3	15	4	4	1	4	7	19	28	7	
	4	16	3	3	1	4	7	17	27	7	
	5	19	2	3	1	3	6	13	27	5	
	6	21	2	3	1	3	6	12	26	5	
	7	25	2	3	1	3	6	8	25	5	
	8	26	1	2	1	3	5	4	25	3	
	9	27	1	2	1	3	5	2	25	3	
27	1	4	5	4	5	5	28	24	15	27	
	2	6	4	3	4	4	28	20	13	26	
	3	10	3	3	4	4	26	16	10	25	
	4	13	3	2	3	4	26	13	8	22	
	5	15	2	2	3	4	24	11	8	21	
	6	20	2	2	3	4	23	8	7	18	
	7	21	2	1	3	4	22	8	5	14	
	8	26	1	1	2	4	21	6	4	14	
	9	28	1	1	2	4	20	2	1	12	
28	1	5	4	4	4	3	6	30	18	25	
	2	10	4	4	3	3	6	30	15	24	
	3	11	4	4	3	3	6	30	15	22	
	4	12	4	4	3	3	5	30	13	22	
	5	15	4	3	2	2	5	30	13	20	
	6	19	4	3	2	2	4	30	11	20	
	7	20	4	3	2	2	4	30	10	18	
	8	21	4	3	2	2	3	30	8	18	
	9	28	4	3	2	2	3	30	8	16	
29	1	2	4	3	5	2	20	28	26	12	
	2	5	4	3	5	2	19	28	26	11	
	3	8	4	3	5	2	19	27	24	11	
	4	15	4	3	5	2	18	26	24	10	
	5	16	4	3	5	2	17	24	23	10	
	6	17	4	3	5	2	17	23	21	10	
	7	19	4	3	5	2	16	23	21	10	
	8	21	4	3	5	2	16	21	20	9	
	9	24	4	3	5	2	16	21	19	9	
30	1	2	3	3	1	1	18	23	29	22	
	2	5	3	3	1	1	16	20	29	20	
	3	6	3	3	1	1	16	17	28	16	
	4	11	2	3	1	1	16	15	28	16	
	5	12	2	3	1	1	14	13	27	12	
	6	22	2	3	1	1	14	11	26	12	
	7	27	2	3	1	1	13	11	25	9	
	8	29	1	3	1	1	12	9	24	6	
	9	30	1	3	1	1	12	5	24	5	
31	1	4	4	5	4	3	25	22	27	11	
	2	5	4	4	3	3	22	19	26	11	
	3	11	4	4	3	3	21	18	25	11	
	4	13	3	4	3	3	19	17	21	11	
	5	14	3	3	3	3	18	17	20	11	
	6	15	2	3	3	3	17	16	17	11	
	7	21	2	2	3	3	17	15	14	11	
	8	23	1	2	3	3	14	13	13	11	
	9	29	1	2	3	3	13	13	11	11	
32	1	8	4	2	4	3	26	8	21	25	
	2	9	4	1	4	3	23	7	21	22	
	3	10	4	1	3	3	21	6	21	21	
	4	16	4	1	3	3	19	5	20	19	
	5	18	4	1	2	3	17	5	19	16	
	6	19	4	1	2	2	16	5	19	11	
	7	20	4	1	2	2	15	4	19	10	
	8	26	4	1	1	2	13	3	18	8	
	9	29	4	1	1	2	10	3	18	4	
33	1	6	3	5	4	2	24	9	23	25	
	2	8	3	4	3	2	20	8	23	24	
	3	14	3	4	3	2	18	8	22	23	
	4	18	3	4	3	2	16	6	20	21	
	5	19	3	3	2	2	14	5	17	20	
	6	20	3	3	2	2	10	4	17	20	
	7	25	3	3	2	2	9	4	16	19	
	8	26	3	2	2	2	7	3	14	18	
	9	27	3	2	2	2	4	1	13	16	
34	1	1	2	4	3	4	27	17	10	8	
	2	2	2	4	3	3	27	15	9	8	
	3	3	2	4	3	3	22	15	8	8	
	4	9	2	3	3	3	18	12	8	8	
	5	13	2	3	2	2	16	10	7	7	
	6	14	1	2	2	2	15	7	7	7	
	7	20	1	2	2	2	9	7	6	6	
	8	22	1	1	2	1	7	4	5	6	
	9	29	1	1	2	1	4	3	5	6	
35	1	6	3	4	3	2	18	23	6	25	
	2	7	3	4	2	2	17	22	6	25	
	3	8	3	4	2	2	17	20	6	25	
	4	11	3	4	2	2	16	16	6	24	
	5	18	2	3	2	1	14	14	6	23	
	6	19	2	3	1	1	14	12	5	23	
	7	20	2	2	1	1	13	12	5	23	
	8	25	1	2	1	1	11	8	5	22	
	9	30	1	2	1	1	10	7	5	22	
36	1	3	3	5	2	4	22	24	22	17	
	2	8	3	4	2	4	20	21	22	17	
	3	9	3	4	2	4	18	20	22	16	
	4	10	3	4	2	4	17	18	21	16	
	5	11	3	3	2	4	14	16	20	15	
	6	13	2	3	2	3	14	13	20	15	
	7	14	2	3	2	3	11	11	19	15	
	8	17	2	3	2	3	11	10	19	14	
	9	28	2	3	2	3	10	8	19	14	
37	1	3	5	4	5	4	18	3	11	26	
	2	4	4	4	4	3	18	3	10	25	
	3	6	4	4	4	3	16	3	10	21	
	4	18	4	4	4	3	14	3	9	16	
	5	19	4	4	3	3	14	3	9	13	
	6	22	4	4	3	2	12	3	8	12	
	7	24	4	4	2	2	12	3	8	10	
	8	27	4	4	2	2	10	3	7	4	
	9	28	4	4	2	2	8	3	7	1	
38	1	2	4	5	4	5	17	28	26	10	
	2	7	4	5	4	5	17	26	23	9	
	3	9	4	5	4	5	14	26	19	8	
	4	10	4	5	4	5	13	22	16	8	
	5	11	4	5	4	5	12	21	15	7	
	6	19	4	5	4	5	11	20	13	5	
	7	20	4	5	4	5	8	18	8	5	
	8	22	4	5	4	5	6	16	5	3	
	9	23	4	5	4	5	6	14	5	2	
39	1	2	3	3	2	5	11	17	23	25	
	2	6	2	3	2	4	10	14	20	21	
	3	11	2	3	2	3	10	14	18	21	
	4	12	2	3	2	3	9	11	15	18	
	5	14	2	3	2	2	8	11	14	16	
	6	19	2	3	2	2	7	9	11	13	
	7	22	2	3	2	2	7	6	9	11	
	8	28	2	3	2	1	6	5	7	9	
	9	29	2	3	2	1	5	5	5	7	
40	1	3	4	2	3	4	17	24	15	20	
	2	9	4	2	3	4	16	24	15	20	
	3	10	4	2	3	4	16	24	14	18	
	4	13	4	2	3	4	15	23	13	16	
	5	14	4	2	3	3	14	23	11	15	
	6	23	3	2	3	3	14	22	10	14	
	7	28	3	2	3	3	14	22	10	12	
	8	29	3	2	3	3	13	21	8	10	
	9	30	3	2	3	3	13	21	8	9	
41	1	1	2	5	4	3	30	22	27	28	
	2	6	2	4	3	3	29	22	25	25	
	3	7	2	4	3	3	27	22	24	23	
	4	8	2	3	3	3	26	21	23	23	
	5	11	2	3	3	3	25	21	23	21	
	6	22	2	3	3	3	24	21	22	19	
	7	23	2	3	3	3	23	20	21	17	
	8	24	2	2	3	3	22	20	21	16	
	9	30	2	2	3	3	22	20	20	15	
42	1	8	3	3	5	4	21	13	10	19	
	2	13	3	2	5	3	19	13	10	19	
	3	16	3	2	5	3	17	12	9	19	
	4	17	3	2	5	3	16	9	8	19	
	5	18	3	2	5	3	15	7	8	18	
	6	19	2	1	5	3	13	7	7	18	
	7	20	2	1	5	3	12	4	7	17	
	8	27	2	1	5	3	11	3	7	17	
	9	29	2	1	5	3	9	2	6	17	
43	1	1	2	4	3	3	21	28	23	14	
	2	7	2	3	2	2	21	25	22	13	
	3	8	2	3	2	2	19	24	21	12	
	4	9	2	3	2	2	18	20	20	11	
	5	12	2	2	2	1	18	19	20	9	
	6	15	2	2	1	1	16	16	18	7	
	7	18	2	1	1	1	15	13	17	6	
	8	22	2	1	1	1	14	13	16	6	
	9	27	2	1	1	1	14	11	15	5	
44	1	4	1	4	4	3	22	29	27	15	
	2	5	1	4	3	3	21	26	27	14	
	3	7	1	4	3	3	21	24	25	13	
	4	8	1	4	2	3	20	21	24	12	
	5	10	1	4	2	3	20	19	24	12	
	6	17	1	4	2	3	19	15	23	11	
	7	20	1	4	1	3	18	14	22	10	
	8	21	1	4	1	3	18	11	20	9	
	9	29	1	4	1	3	17	10	19	9	
45	1	1	4	4	3	5	26	21	29	30	
	2	4	4	4	3	4	25	18	27	28	
	3	17	3	4	3	4	21	17	26	27	
	4	19	3	3	3	4	18	17	24	26	
	5	21	2	3	3	3	17	15	23	26	
	6	22	2	3	3	3	13	15	20	24	
	7	27	1	2	3	3	12	13	19	23	
	8	29	1	2	3	3	6	13	19	22	
	9	30	1	2	3	3	5	11	17	22	
46	1	1	3	5	3	4	23	20	17	22	
	2	4	3	4	3	4	22	18	17	22	
	3	7	3	4	3	4	22	16	17	21	
	4	12	3	3	3	4	19	15	17	19	
	5	18	3	2	3	4	18	13	17	17	
	6	20	2	2	2	4	16	13	17	16	
	7	21	2	1	2	4	14	12	17	15	
	8	23	2	1	2	4	14	9	17	14	
	9	24	2	1	2	4	12	9	17	14	
47	1	1	4	5	4	2	29	27	25	28	
	2	2	3	4	3	2	29	27	22	27	
	3	3	3	4	3	2	29	23	21	22	
	4	5	2	4	3	2	29	20	21	22	
	5	11	2	4	2	2	28	16	19	19	
	6	14	2	3	2	1	28	12	18	17	
	7	18	1	3	2	1	28	12	16	14	
	8	21	1	3	2	1	28	9	14	10	
	9	28	1	3	2	1	28	5	13	9	
48	1	1	4	5	3	2	26	24	19	26	
	2	5	3	4	2	2	25	23	17	22	
	3	8	3	4	2	2	25	20	17	22	
	4	17	2	4	2	2	24	18	15	19	
	5	21	2	4	2	2	23	16	14	13	
	6	23	2	3	1	2	23	16	14	12	
	7	26	2	3	1	2	21	15	12	10	
	8	29	1	3	1	2	21	11	11	7	
	9	30	1	3	1	2	20	10	11	2	
49	1	2	2	3	3	2	28	14	26	14	
	2	7	2	2	3	2	28	11	22	14	
	3	8	2	2	3	2	26	10	20	14	
	4	13	2	2	3	2	24	8	19	14	
	5	17	2	2	3	2	22	7	17	14	
	6	18	2	2	2	2	20	6	15	14	
	7	21	2	2	2	2	20	5	14	14	
	8	27	2	2	2	2	19	3	13	14	
	9	28	2	2	2	2	16	3	11	14	
50	1	5	2	4	2	5	22	20	28	14	
	2	7	1	4	2	4	21	19	27	13	
	3	11	1	4	2	3	20	18	27	12	
	4	13	1	4	2	3	19	17	27	12	
	5	14	1	3	2	3	17	16	26	11	
	6	16	1	3	2	2	17	16	26	11	
	7	22	1	2	2	1	15	16	25	10	
	8	23	1	2	2	1	15	15	25	10	
	9	30	1	2	2	1	14	14	25	10	
51	1	10	4	2	4	4	28	16	10	3	
	2	14	4	1	4	3	24	16	9	3	
	3	15	3	1	4	3	22	13	7	3	
	4	18	3	1	4	3	19	13	6	3	
	5	20	2	1	4	2	15	12	6	3	
	6	21	2	1	4	2	12	10	6	3	
	7	26	2	1	4	2	10	9	5	3	
	8	27	1	1	4	2	9	7	4	3	
	9	28	1	1	4	2	4	5	3	3	
52	1	2	3	5	3	4	11	27	25	7	
	2	3	2	4	3	3	11	27	25	7	
	3	4	2	4	3	3	10	26	23	7	
	4	5	2	4	3	3	8	26	23	7	
	5	6	2	4	2	3	8	25	21	7	
	6	7	2	3	2	2	8	25	21	7	
	7	10	2	3	2	2	7	24	20	7	
	8	16	2	3	1	2	5	23	19	7	
	9	18	2	3	1	2	5	23	18	7	
53	1	1	4	4	4	3	20	29	19	17	
	2	2	3	3	3	2	16	28	18	17	
	3	5	3	3	3	2	15	26	17	14	
	4	9	3	3	3	2	13	26	16	13	
	5	10	3	3	3	2	11	25	16	11	
	6	14	3	3	3	2	8	25	16	10	
	7	15	3	3	3	2	6	24	15	8	
	8	24	3	3	3	2	5	22	14	5	
	9	27	3	3	3	2	3	22	14	5	
54	1	1	4	5	4	4	7	21	13	24	
	2	9	4	4	4	4	7	19	12	22	
	3	11	4	4	4	4	7	19	11	22	
	4	16	4	4	4	4	7	18	9	21	
	5	19	4	4	3	3	6	18	9	21	
	6	20	4	3	3	3	6	17	8	20	
	7	22	4	3	2	2	5	16	7	20	
	8	28	4	3	2	2	5	15	5	19	
	9	30	4	3	2	2	5	15	5	18	
55	1	1	2	3	5	1	21	23	25	13	
	2	2	2	3	4	1	17	23	24	12	
	3	5	2	3	4	1	15	22	20	10	
	4	12	2	3	4	1	14	22	18	10	
	5	17	2	3	4	1	11	22	15	9	
	6	21	1	3	4	1	11	21	14	8	
	7	22	1	3	4	1	9	21	11	7	
	8	28	1	3	4	1	7	20	8	7	
	9	29	1	3	4	1	4	20	8	6	
56	1	10	4	2	2	5	29	18	11	23	
	2	11	4	2	2	4	29	18	10	23	
	3	13	4	2	2	4	29	17	8	19	
	4	14	4	2	2	4	28	17	8	19	
	5	15	4	2	2	4	28	16	6	16	
	6	17	4	1	2	4	27	16	5	14	
	7	18	4	1	2	4	27	15	5	12	
	8	28	4	1	2	4	26	15	3	10	
	9	29	4	1	2	4	26	14	3	8	
57	1	1	4	2	1	3	27	30	12	23	
	2	2	3	2	1	3	27	29	12	22	
	3	4	3	2	1	3	26	29	11	22	
	4	7	3	2	1	3	24	29	10	21	
	5	8	3	1	1	3	24	29	10	21	
	6	15	3	1	1	3	22	28	9	21	
	7	16	3	1	1	3	21	28	9	20	
	8	20	3	1	1	3	20	28	8	20	
	9	22	3	1	1	3	20	28	8	19	
58	1	1	2	4	2	2	18	19	12	24	
	2	4	2	4	2	1	16	16	12	23	
	3	5	2	4	2	1	15	15	12	23	
	4	6	2	4	2	1	14	12	12	22	
	5	8	2	4	2	1	13	11	11	22	
	6	13	1	4	2	1	12	10	11	22	
	7	14	1	4	2	1	11	8	11	21	
	8	23	1	4	2	1	10	6	10	20	
	9	29	1	4	2	1	8	4	10	20	
59	1	5	5	2	2	4	24	24	27	29	
	2	6	5	1	1	3	24	22	26	27	
	3	7	5	1	1	3	23	20	25	27	
	4	8	5	1	1	2	22	18	24	25	
	5	10	5	1	1	2	22	17	23	25	
	6	14	5	1	1	2	22	13	23	25	
	7	18	5	1	1	1	21	10	22	23	
	8	24	5	1	1	1	20	9	22	22	
	9	25	5	1	1	1	20	6	21	22	
60	1	2	1	5	3	4	24	6	15	25	
	2	3	1	4	2	4	22	6	15	20	
	3	4	1	4	2	4	21	6	15	18	
	4	7	1	4	2	4	18	6	15	15	
	5	24	1	4	2	3	14	6	15	12	
	6	25	1	4	2	3	12	6	14	11	
	7	27	1	4	2	3	10	6	14	7	
	8	29	1	4	2	3	9	6	14	4	
	9	30	1	4	2	3	6	6	14	3	
61	1	3	1	3	1	5	12	17	18	18	
	2	7	1	3	1	4	10	17	17	17	
	3	12	1	3	1	4	9	16	17	15	
	4	16	1	2	1	3	8	15	16	13	
	5	21	1	2	1	3	8	15	15	10	
	6	24	1	2	1	2	7	15	14	9	
	7	28	1	2	1	2	5	14	14	9	
	8	29	1	1	1	1	5	13	13	7	
	9	30	1	1	1	1	3	13	12	5	
62	1	4	4	1	3	4	25	26	27	16	
	2	5	3	1	3	4	25	25	26	14	
	3	6	3	1	3	4	23	22	26	11	
	4	7	3	1	3	4	23	22	24	11	
	5	13	2	1	2	4	22	20	23	8	
	6	20	2	1	2	4	20	17	22	7	
	7	24	2	1	2	4	19	15	22	4	
	8	25	1	1	1	4	18	15	21	4	
	9	26	1	1	1	4	18	13	20	1	
63	1	2	3	5	2	5	4	12	27	26	
	2	3	3	4	2	4	4	11	25	23	
	3	4	3	4	2	3	4	11	23	21	
	4	6	3	4	2	3	4	9	20	18	
	5	7	3	4	2	2	4	7	20	15	
	6	15	3	4	1	2	4	6	16	15	
	7	21	3	4	1	1	4	5	13	11	
	8	22	3	4	1	1	4	4	11	8	
	9	27	3	4	1	1	4	2	9	8	
64	1	1	1	4	5	4	26	28	23	24	
	2	2	1	4	4	3	25	27	23	22	
	3	7	1	4	4	3	24	27	23	19	
	4	10	1	4	4	3	24	25	22	18	
	5	17	1	4	4	3	24	25	21	16	
	6	19	1	4	4	3	23	25	21	13	
	7	20	1	4	4	3	22	24	20	13	
	8	21	1	4	4	3	22	23	20	10	
	9	25	1	4	4	3	22	22	20	7	
65	1	6	3	2	5	4	5	12	20	21	
	2	7	2	2	4	3	5	11	16	18	
	3	12	2	2	4	3	4	9	14	16	
	4	15	2	2	4	3	4	9	13	15	
	5	17	1	2	4	2	4	7	11	15	
	6	18	1	2	4	2	3	6	10	12	
	7	19	1	2	4	1	2	4	7	12	
	8	27	1	2	4	1	2	3	7	9	
	9	28	1	2	4	1	2	2	4	9	
66	1	4	3	2	2	4	29	30	28	8	
	2	6	3	2	2	4	26	29	23	6	
	3	10	3	2	2	4	22	29	21	6	
	4	11	3	2	2	4	22	28	18	6	
	5	12	3	1	2	4	20	27	17	4	
	6	15	3	1	1	4	15	27	14	4	
	7	18	3	1	1	4	14	27	13	3	
	8	21	3	1	1	4	10	26	11	3	
	9	29	3	1	1	4	10	26	7	2	
67	1	1	1	4	4	4	14	17	17	28	
	2	3	1	4	3	3	13	17	15	25	
	3	10	1	4	3	3	13	16	14	23	
	4	16	1	3	3	3	13	15	11	20	
	5	21	1	3	2	3	13	14	11	15	
	6	24	1	3	2	3	13	14	8	14	
	7	26	1	2	2	3	13	14	8	12	
	8	29	1	2	1	3	13	12	5	9	
	9	30	1	2	1	3	13	12	4	8	
68	1	2	3	3	2	3	12	18	30	9	
	2	7	3	3	2	3	12	16	24	7	
	3	8	3	3	2	3	11	15	23	7	
	4	17	3	3	2	3	9	15	17	7	
	5	20	3	3	2	2	8	12	15	6	
	6	21	2	3	2	2	8	12	11	5	
	7	22	2	3	2	1	6	11	8	5	
	8	23	2	3	2	1	5	9	4	3	
	9	24	2	3	2	1	5	8	3	3	
69	1	1	4	5	4	2	19	27	26	14	
	2	10	4	4	3	2	16	23	26	13	
	3	16	4	4	3	2	14	22	25	12	
	4	17	4	4	3	2	12	18	25	10	
	5	18	3	4	3	2	9	16	24	9	
	6	20	3	4	3	2	9	15	24	9	
	7	24	3	4	3	2	6	12	23	7	
	8	28	2	4	3	2	5	9	22	6	
	9	29	2	4	3	2	3	5	22	5	
70	1	1	2	3	3	4	26	10	22	6	
	2	3	2	3	2	4	21	10	22	6	
	3	5	2	3	2	4	18	10	22	6	
	4	7	2	3	2	4	15	10	22	6	
	5	20	2	3	2	3	14	10	22	5	
	6	24	2	3	2	3	12	10	22	5	
	7	25	2	3	2	3	7	10	22	5	
	8	26	2	3	2	3	3	10	22	4	
	9	30	2	3	2	3	2	10	22	4	
71	1	4	3	4	2	1	24	21	13	24	
	2	8	3	3	2	1	23	18	13	22	
	3	9	3	3	2	1	21	18	12	19	
	4	10	3	3	2	1	18	16	10	18	
	5	12	3	3	1	1	17	15	8	17	
	6	13	2	2	1	1	15	13	7	14	
	7	20	2	2	1	1	10	13	5	14	
	8	24	2	2	1	1	10	11	5	10	
	9	29	2	2	1	1	6	11	3	10	
72	1	8	5	4	4	4	12	6	17	13	
	2	9	4	4	4	4	12	5	15	12	
	3	10	4	4	4	4	11	5	13	12	
	4	11	4	4	4	4	11	5	12	11	
	5	13	3	4	4	4	10	5	11	11	
	6	15	3	4	4	3	10	4	8	10	
	7	16	3	4	4	3	9	4	6	10	
	8	21	3	4	4	3	9	4	4	9	
	9	27	3	4	4	3	9	4	3	9	
73	1	5	3	4	4	5	27	17	12	28	
	2	6	3	3	4	4	26	16	12	28	
	3	10	3	3	3	4	25	16	9	27	
	4	15	3	3	3	4	25	15	8	25	
	5	16	3	2	3	4	24	15	8	22	
	6	19	3	2	2	3	23	15	5	21	
	7	20	3	1	1	3	23	14	3	21	
	8	24	3	1	1	3	21	14	2	19	
	9	30	3	1	1	3	21	14	2	17	
74	1	1	3	3	4	4	26	12	13	19	
	2	12	3	3	3	4	25	12	13	17	
	3	13	3	3	3	4	25	12	13	16	
	4	15	3	3	3	4	25	12	13	14	
	5	18	3	2	3	4	24	12	13	11	
	6	19	2	2	3	4	23	11	13	9	
	7	21	2	1	3	4	23	11	13	7	
	8	22	2	1	3	4	22	11	13	5	
	9	26	2	1	3	4	22	11	13	4	
75	1	11	3	4	3	4	19	20	20	26	
	2	13	2	4	2	3	17	19	17	25	
	3	16	2	3	2	3	16	17	16	21	
	4	20	2	3	2	3	14	16	16	17	
	5	21	2	3	2	2	11	16	14	17	
	6	25	2	2	2	2	9	15	12	13	
	7	26	2	2	2	1	8	14	11	12	
	8	27	2	1	2	1	5	13	9	9	
	9	28	2	1	2	1	5	12	8	5	
76	1	2	5	5	4	2	19	28	6	25	
	2	3	4	4	3	1	18	27	4	23	
	3	4	4	3	3	1	17	23	4	21	
	4	5	3	3	3	1	17	23	3	18	
	5	10	3	2	3	1	16	19	3	13	
	6	15	3	2	3	1	14	18	2	12	
	7	18	3	2	3	1	13	15	2	7	
	8	25	2	1	3	1	11	12	2	6	
	9	28	2	1	3	1	10	11	1	3	
77	1	1	4	4	5	3	23	18	13	18	
	2	2	4	4	4	2	23	18	13	17	
	3	4	4	4	4	2	21	18	12	16	
	4	7	4	4	4	2	21	17	12	16	
	5	10	4	4	3	1	18	17	11	16	
	6	11	4	4	3	1	17	17	10	15	
	7	13	4	4	2	1	17	17	10	15	
	8	14	4	4	2	1	14	16	8	14	
	9	30	4	4	2	1	14	16	8	13	
78	1	10	5	5	4	4	27	28	10	21	
	2	16	4	5	4	4	24	24	9	18	
	3	18	4	5	4	3	21	23	9	16	
	4	22	4	5	4	3	18	19	8	15	
	5	23	4	5	4	3	18	16	8	12	
	6	24	4	5	4	2	14	14	8	8	
	7	25	4	5	4	1	10	8	7	7	
	8	27	4	5	4	1	9	7	6	3	
	9	30	4	5	4	1	6	4	6	1	
79	1	2	4	4	5	4	25	30	20	18	
	2	5	4	3	4	3	20	30	20	16	
	3	11	4	3	4	3	19	30	20	14	
	4	17	3	3	3	3	16	30	19	13	
	5	19	3	3	3	2	14	30	19	11	
	6	23	3	3	3	2	11	30	19	10	
	7	24	2	3	2	1	10	30	18	8	
	8	28	2	3	2	1	6	30	18	7	
	9	29	2	3	2	1	3	30	18	4	
80	1	4	2	4	3	3	29	20	15	26	
	2	5	2	4	2	3	26	17	14	23	
	3	6	2	4	2	3	22	16	14	23	
	4	9	2	4	2	2	19	13	12	19	
	5	10	2	4	2	2	13	13	11	19	
	6	12	1	4	2	2	12	10	8	17	
	7	14	1	4	2	2	8	9	8	15	
	8	23	1	4	2	1	7	6	6	12	
	9	24	1	4	2	1	4	5	4	11	
81	1	2	4	2	5	3	26	13	21	22	
	2	11	4	1	4	2	26	12	18	20	
	3	12	4	1	4	2	24	12	17	18	
	4	13	3	1	4	2	24	9	13	16	
	5	16	3	1	3	2	22	8	13	16	
	6	23	3	1	3	2	22	7	10	14	
	7	26	3	1	3	2	21	5	10	13	
	8	28	2	1	3	2	19	3	8	11	
	9	30	2	1	3	2	19	3	6	9	
82	1	8	4	2	3	2	22	27	22	16	
	2	10	3	1	3	2	22	26	20	16	
	3	14	3	1	3	2	19	26	19	16	
	4	18	3	1	3	2	17	25	19	16	
	5	19	2	1	3	2	15	25	17	15	
	6	20	2	1	3	2	15	25	17	14	
	7	21	2	1	3	2	13	25	16	15	
	8	25	2	1	3	2	11	24	14	15	
	9	26	2	1	3	2	9	24	14	15	
83	1	4	4	3	4	4	23	4	14	15	
	2	8	4	2	3	3	21	3	14	14	
	3	10	4	2	3	3	21	3	14	13	
	4	13	3	2	3	3	20	3	13	13	
	5	15	3	2	2	3	18	3	13	13	
	6	16	2	2	2	2	16	3	13	12	
	7	26	2	2	1	2	15	3	12	12	
	8	29	1	2	1	2	14	3	12	11	
	9	30	1	2	1	2	13	3	12	11	
84	1	3	4	4	5	4	21	2	28	24	
	2	8	4	3	4	4	21	2	24	21	
	3	11	4	3	4	4	21	2	23	20	
	4	14	4	3	4	3	21	2	18	18	
	5	20	4	2	4	3	21	2	16	17	
	6	25	4	2	4	3	21	2	12	15	
	7	26	4	1	4	2	21	2	9	13	
	8	29	4	1	4	2	21	2	6	11	
	9	30	4	1	4	2	21	2	5	11	
85	1	2	5	4	3	4	26	28	8	7	
	2	3	5	4	2	4	24	27	8	6	
	3	5	5	3	2	4	22	27	7	5	
	4	9	5	3	2	4	21	26	7	5	
	5	11	5	3	2	3	20	25	7	4	
	6	12	5	2	2	3	19	25	6	3	
	7	14	5	2	2	3	19	25	5	3	
	8	16	5	1	2	2	18	24	5	3	
	9	27	5	1	2	2	17	24	5	2	
86	1	2	3	3	4	3	26	10	19	8	
	2	3	2	3	4	3	25	9	19	7	
	3	7	2	3	4	3	24	9	17	7	
	4	8	2	3	3	2	23	9	16	6	
	5	11	2	3	3	2	23	8	13	6	
	6	13	2	3	3	2	22	8	12	6	
	7	15	2	3	2	1	22	8	11	5	
	8	16	2	3	2	1	21	8	10	5	
	9	29	2	3	2	1	20	8	9	5	
87	1	2	5	1	1	5	30	28	19	30	
	2	7	4	1	1	4	28	26	17	28	
	3	10	4	1	1	4	26	21	15	27	
	4	12	3	1	1	3	24	19	12	26	
	5	16	3	1	1	3	22	16	10	26	
	6	17	3	1	1	2	22	15	8	25	
	7	18	3	1	1	1	19	13	7	23	
	8	19	2	1	1	1	19	8	5	23	
	9	20	2	1	1	1	18	6	4	22	
88	1	3	2	3	4	4	20	5	16	26	
	2	4	2	3	4	3	18	5	15	26	
	3	5	2	3	3	3	14	5	14	26	
	4	7	2	3	3	3	12	5	11	26	
	5	18	2	3	2	3	12	5	9	26	
	6	21	2	3	2	2	8	4	9	25	
	7	22	2	3	2	2	8	4	7	25	
	8	24	2	3	1	2	6	4	5	25	
	9	30	2	3	1	2	2	4	5	25	
89	1	2	3	4	4	4	15	24	19	4	
	2	4	2	4	4	3	14	22	18	4	
	3	9	2	4	4	3	14	21	18	4	
	4	13	2	3	4	3	12	17	17	4	
	5	16	2	2	4	3	11	14	16	3	
	6	17	2	2	4	3	9	11	16	3	
	7	18	2	2	4	3	8	7	16	2	
	8	21	2	1	4	3	8	4	15	2	
	9	30	2	1	4	3	6	4	15	2	
90	1	2	2	3	3	3	16	26	16	23	
	2	6	2	3	3	3	15	26	15	22	
	3	8	2	3	3	3	15	24	14	20	
	4	9	2	3	3	3	14	22	13	16	
	5	21	2	2	3	3	12	21	10	15	
	6	24	2	2	2	2	11	19	8	11	
	7	25	2	2	2	2	10	18	6	11	
	8	28	2	1	2	2	9	14	4	7	
	9	29	2	1	2	2	7	14	3	5	
91	1	1	4	5	3	2	23	21	30	22	
	2	3	3	4	3	2	22	19	27	18	
	3	6	3	4	3	2	20	19	27	16	
	4	8	3	4	3	2	19	15	24	15	
	5	9	3	4	3	2	19	15	23	12	
	6	16	2	3	3	2	17	12	23	10	
	7	17	2	3	3	2	17	10	20	10	
	8	18	2	3	3	2	15	8	19	7	
	9	30	2	3	3	2	14	7	19	5	
92	1	14	4	4	4	1	11	24	18	23	
	2	15	4	3	4	1	10	24	16	22	
	3	19	4	3	4	1	10	23	15	22	
	4	20	4	3	4	1	9	23	15	22	
	5	22	4	2	4	1	9	22	12	22	
	6	23	4	2	3	1	8	22	10	22	
	7	24	4	1	3	1	8	21	10	22	
	8	25	4	1	3	1	8	21	8	22	
	9	27	4	1	3	1	7	21	7	22	
93	1	4	3	5	3	1	9	29	18	21	
	2	7	2	4	2	1	9	28	17	19	
	3	11	2	3	2	1	8	28	17	17	
	4	13	2	3	2	1	7	26	17	17	
	5	15	2	2	2	1	5	26	17	14	
	6	22	1	2	2	1	4	25	17	11	
	7	23	1	2	2	1	3	24	17	10	
	8	29	1	1	2	1	3	22	17	7	
	9	30	1	1	2	1	2	22	17	6	
94	1	9	4	4	4	3	24	21	25	15	
	2	14	4	3	3	2	23	20	23	14	
	3	15	4	3	3	2	22	19	21	13	
	4	18	4	3	3	2	21	17	19	12	
	5	21	4	3	2	2	21	15	19	12	
	6	22	3	3	2	2	21	15	17	10	
	7	23	3	3	1	2	20	12	16	10	
	8	25	3	3	1	2	19	12	14	8	
	9	26	3	3	1	2	19	11	12	7	
95	1	2	5	2	4	3	29	18	25	10	
	2	6	4	2	4	2	28	18	23	8	
	3	7	4	2	4	2	27	16	22	7	
	4	8	3	2	3	2	26	16	19	6	
	5	11	3	2	3	2	26	15	18	6	
	6	12	3	2	2	2	25	13	17	5	
	7	15	2	2	1	2	25	12	15	3	
	8	17	2	2	1	2	25	12	15	2	
	9	25	2	2	1	2	24	11	14	2	
96	1	1	4	2	3	2	16	22	27	7	
	2	2	4	1	3	2	15	17	26	5	
	3	6	4	1	3	2	15	15	24	5	
	4	7	3	1	3	2	14	15	20	4	
	5	8	3	1	3	2	14	11	19	4	
	6	15	3	1	3	2	13	10	15	3	
	7	16	3	1	3	2	13	8	13	3	
	8	20	2	1	3	2	12	6	12	2	
	9	23	2	1	3	2	12	4	10	2	
97	1	1	2	4	2	5	18	8	19	20	
	2	5	2	3	2	4	18	8	19	19	
	3	11	2	3	2	4	14	8	18	16	
	4	23	2	3	2	4	14	7	18	15	
	5	24	1	2	2	4	11	6	16	13	
	6	26	1	2	2	3	11	6	16	13	
	7	27	1	1	2	3	8	6	16	12	
	8	28	1	1	2	3	6	5	15	9	
	9	29	1	1	2	3	5	5	14	8	
98	1	1	1	5	4	1	5	22	8	26	
	2	2	1	4	4	1	4	22	8	25	
	3	3	1	4	4	1	4	20	6	24	
	4	4	1	4	4	1	4	19	5	21	
	5	9	1	4	4	1	3	18	4	20	
	6	14	1	4	3	1	3	17	3	20	
	7	15	1	4	3	1	3	16	3	19	
	8	22	1	4	3	1	3	16	2	16	
	9	24	1	4	3	1	3	15	1	15	
99	1	4	3	5	3	3	9	20	15	27	
	2	6	2	4	3	2	8	19	15	24	
	3	7	2	4	3	2	8	18	15	22	
	4	17	2	4	3	2	8	15	15	21	
	5	18	1	4	3	2	8	15	14	19	
	6	24	1	4	3	1	8	12	14	19	
	7	25	1	4	3	1	8	11	13	18	
	8	26	1	4	3	1	8	9	13	15	
	9	27	1	4	3	1	8	7	13	14	
100	1	2	2	5	4	5	13	15	26	16	
	2	4	2	5	4	4	11	15	21	14	
	3	6	2	5	4	4	11	14	19	13	
	4	8	2	5	4	4	11	13	16	12	
	5	10	2	5	4	3	10	11	13	12	
	6	20	2	5	4	3	9	11	12	11	
	7	22	2	5	4	2	9	10	7	9	
	8	23	2	5	4	2	8	9	7	9	
	9	24	2	5	4	2	8	7	2	7	
101	1	1	4	2	5	4	11	21	15	5	
	2	2	3	2	4	4	11	21	15	4	
	3	8	3	2	4	4	10	21	13	4	
	4	14	3	2	4	4	10	21	12	4	
	5	15	3	2	3	4	9	21	11	4	
	6	23	3	2	3	4	8	21	9	4	
	7	24	3	2	2	4	8	21	7	4	
	8	25	3	2	2	4	8	21	6	4	
	9	29	3	2	2	4	7	21	6	4	
102	1	0	0	0	0	0	0	0	0	0	
************************************************************************

 RESOURCE AVAILABILITIES 
	R 1	R 2	R 3	R 4	N 1	N 2	N 3	N 4
	86	96	95	93	1330	1262	1286	1258

************************************************************************
